NAME          DCAP_3_3_2_500_SS274
ROWS
 N  OBJ
 L  CON1
 L  CON2
 L  CON3
 L  CON4
 L  CON5
 L  CON6
 L  CON7
 L  CON8
 L  CON9
 L  CON10
 L  CON11
 L  CON12
 E  CON13
 E  CON14
 E  CON15
 E  CON16
 E  CON17
 E  CON18
COLUMNS
    x[1,1]    OBJ       6.180167      CON1      1.000000    
    x[1,1]    CON7      -1.000000     CON8      -1.000000   
    x[1,2]    OBJ       5.039546      CON2      1.000000    
    x[1,2]    CON8      -1.000000   
    x[2,1]    OBJ       6.732585      CON3      1.000000    
    x[2,1]    CON9      -1.000000     CON10     -1.000000   
    x[2,2]    OBJ       7.443064      CON4      1.000000    
    x[2,2]    CON10     -1.000000   
    x[3,1]    OBJ       6.563535      CON5      1.000000    
    x[3,1]    CON11     -1.000000     CON12     -1.000000   
    x[3,2]    OBJ       6.054841      CON6      1.000000    
    x[3,2]    CON12     -1.000000   
    MARKER    'MARKER'                'INTORG'
    u[1,1]    OBJ       48.076654     CON1      -1.000000   
    u[1,2]    OBJ       49.466655     CON2      -1.000000   
    u[2,1]    OBJ       49.996186     CON3      -1.000000   
    u[2,2]    OBJ       32.230043     CON4      -1.000000   
    u[3,1]    OBJ       20.066487     CON5      -1.000000   
    u[3,2]    OBJ       27.484319     CON6      -1.000000   
    y[1,1,1]  OBJ       6.429626      CON7      0.817213    
    y[1,1,1]  CON13     1.000000    
    y[1,1,2]  OBJ       8.214013      CON8      0.643025    
    y[1,1,2]  CON14     1.000000    
    y[1,2,1]  OBJ       6.059158      CON7      1.491518    
    y[1,2,1]  CON15     1.000000    
    y[1,2,2]  OBJ       9.185845      CON8      1.224519    
    y[1,2,2]  CON16     1.000000    
    y[1,3,1]  OBJ       8.945534      CON7      1.087251    
    y[1,3,1]  CON17     1.000000    
    y[1,3,2]  OBJ       9.013046      CON8      0.621701    
    y[1,3,2]  CON18     1.000000    
    y[2,1,1]  OBJ       5.726361      CON9      0.817213    
    y[2,1,1]  CON13     1.000000    
    y[2,1,2]  OBJ       9.050182      CON10     0.643025    
    y[2,1,2]  CON14     1.000000    
    y[2,2,1]  OBJ       6.510481      CON9      1.491518    
    y[2,2,1]  CON15     1.000000    
    y[2,2,2]  OBJ       7.534017      CON10     1.224519    
    y[2,2,2]  CON16     1.000000    
    y[2,3,1]  OBJ       7.009693      CON9      1.087251    
    y[2,3,1]  CON17     1.000000    
    y[2,3,2]  OBJ       7.103086      CON10     0.621701    
    y[2,3,2]  CON18     1.000000    
    y[3,1,1]  OBJ       5.451707      CON11     0.817213    
    y[3,1,1]  CON13     1.000000    
    y[3,1,2]  OBJ       7.571341      CON12     0.643025    
    y[3,1,2]  CON14     1.000000    
    y[3,2,1]  OBJ       7.559673      CON11     1.491518    
    y[3,2,1]  CON15     1.000000    
    y[3,2,2]  OBJ       7.405779      CON12     1.224519    
    y[3,2,2]  CON16     1.000000    
    y[3,3,1]  OBJ       5.821797      CON11     1.087251    
    y[3,3,1]  CON17     1.000000    
    y[3,3,2]  OBJ       8.998305      CON12     0.621701    
    y[3,3,2]  CON18     1.000000    
    z[1,1]    OBJ       918.494605    CON13     1.000000    
    z[1,2]    OBJ       520.405822    CON14     1.000000    
    z[2,1]    OBJ       885.035646    CON15     1.000000    
    z[2,2]    OBJ       745.780472    CON16     1.000000    
    z[3,1]    OBJ       730.029427    CON17     1.000000    
    z[3,2]    OBJ       910.043951    CON18     1.000000    
    MARKER    'MARKER'                 'INTEND'
RHS
    RHS       CON1      -0.000000     CON2      -0.000000   
    RHS       CON3      -0.000000     CON4      -0.000000   
    RHS       CON5      -0.000000     CON6      -0.000000   
    RHS       CON7      -0.000000     CON8      -0.000000   
    RHS       CON9      -0.000000     CON10     -0.000000   
    RHS       CON11     -0.000000     CON12     -0.000000   
    RHS       CON13     1.000000      CON14     1.000000    
    RHS       CON15     1.000000      CON16     1.000000    
    RHS       CON17     1.000000      CON18     1.000000    
BOUNDS
 BV BOUND     u[1,1]  
 BV BOUND     u[1,2]  
 BV BOUND     u[2,1]  
 BV BOUND     u[2,2]  
 BV BOUND     u[3,1]  
 BV BOUND     u[3,2]  
 BV BOUND     y[1,1,1]
 BV BOUND     y[1,1,2]
 BV BOUND     y[1,2,1]
 BV BOUND     y[1,2,2]
 BV BOUND     y[1,3,1]
 BV BOUND     y[1,3,2]
 BV BOUND     y[2,1,1]
 BV BOUND     y[2,1,2]
 BV BOUND     y[2,2,1]
 BV BOUND     y[2,2,2]
 BV BOUND     y[2,3,1]
 BV BOUND     y[2,3,2]
 BV BOUND     y[3,1,1]
 BV BOUND     y[3,1,2]
 BV BOUND     y[3,2,1]
 BV BOUND     y[3,2,2]
 BV BOUND     y[3,3,1]
 BV BOUND     y[3,3,2]
 BV BOUND     z[1,1]  
 BV BOUND     z[1,2]  
 BV BOUND     z[2,1]  
 BV BOUND     z[2,2]  
 BV BOUND     z[3,1]  
 BV BOUND     z[3,2]  
ENDATA
